Instance: /home/alberto/work/doct-ufrgs-thesis/mankowska2014/instances-HHCRSP/InstanzCPLEX_HCSRP_10_1.txt
Time limit: 7200
Working directory: ./run.2pPELitz


Generating model and initial solution...
#######################################
### Exact MIP solver for the HHCRSP ###
#######################################
-- Instance file: /home/alberto/work/doct-ufrgs-thesis/mankowska2014/instances-HHCRSP/InstanzCPLEX_HCSRP_10_1.txt
-- Max threads: 1
-- Time limit: 200 seconds
-- Use initial solution: No
Trivial flow violations prevented generating 133 variables.
Fractional cycle elimination constraints enabled.
Model exported.
SKIP_OPT flag set. Exiting.


Invoking CPLEX...

Welcome to IBM(R) ILOG(R) CPLEX(R) Interactive Optimizer 20.1.0.0
  with Simplex, Mixed Integer & Barrier Optimizers
5725-A06 5725-A29 5724-Y48 5724-Y49 5724-Y54 5724-Y55 5655-Y21
Copyright IBM Corp. 1988, 2020.  All Rights Reserved.

Type 'help' for a list of available commands.
Type 'help' followed by a command name for more
information on commands.

CPLEX> New value for seed to initialize the random number generator: 1
CPLEX> New value for reduced memory emphasis: yes
CPLEX> New value for default parallel thread count: 1
CPLEX> New value for time limit in seconds: 7200
CPLEX> Problem './run.2pPELitz/model.lp' read.
Read time = 0.00 sec. (0.04 ticks)
CPLEX> Version identifier: 20.1.0.0 | 2020-11-10 | 9bedb6d68
CPXPARAM_Threads                                 1
CPXPARAM_Emphasis_Memory                         1
CPXPARAM_RandomSeed                              1
CPXPARAM_TimeLimit                               7200
Tried aggregator 1 time.
MIP Presolve eliminated 108 rows and 51 columns.
MIP Presolve modified 46 coefficients.
Reduced MIP has 255 rows, 152 columns, and 1347 nonzeros.
Reduced MIP has 120 binaries, 0 generals, 0 SOSs, and 0 indicators.
Presolve time = 0.00 sec. (1.04 ticks)
Found incumbent of value 747.668900 after 0.01 sec. (2.02 ticks)
Probing time = 0.00 sec. (0.43 ticks)
Tried aggregator 1 time.
Detecting symmetries...
Reduced MIP has 255 rows, 152 columns, and 1347 nonzeros.
Reduced MIP has 120 binaries, 0 generals, 0 SOSs, and 0 indicators.
Presolve time = 0.00 sec. (0.77 ticks)
Probing time = 0.00 sec. (0.49 ticks)
Clique table members: 376.
MIP emphasis: balance optimality and feasibility.
MIP search method: dynamic search.
Parallel mode: none, using 1 thread.
Root relaxation solution time = 0.00 sec. (0.43 ticks)

        Nodes                                         Cuts/
   Node  Left     Objective  IInf  Best Integer    Best Bound    ItCnt     Gap

*     0+    0                          747.6689        0.0000           100.00%
      0     0      168.6263    28      747.6689      168.6263       44   77.45%
      0     0      169.5263    36      747.6689      Cuts: 21       75   77.33%
      0     0      184.3741    22      747.6689      Cuts: 45      104   75.34%
      0     0      194.3138    26      747.6689      Cuts: 13      121   74.01%
*     0+    0                          675.0744      194.3138            71.22%
      0     0      202.9178    44      675.0744      Cuts: 27      146   69.94%
      0     0      203.5196    43      675.0744      Cuts: 25      155   69.85%
      0     0      205.2475    24      675.0744      Cuts: 13      173   69.60%
      0     0      206.6380    46      675.0744      Cuts: 18      178   69.39%
*     0+    0                          274.0752      206.6380            24.61%
      0     0      206.7624    26      274.0752      Cuts: 13      197   24.56%
      0     0      206.9874    24      274.0752      Cuts: 36      204   24.48%
      0     0      207.1445    49      274.0752      Cuts: 11      212   24.42%
*     0+    0                          261.3630      207.1445            20.74%
      0     0      207.4578    44      261.3630       Cuts: 8      219   20.62%
      0     0      207.4734    49      261.3630       Cuts: 7      223   20.62%
      0     0      207.8591    45      261.3630       Cuts: 6      232   20.47%
      0     0      207.8591    45      261.3630   Impl Bds: 6      237   20.47%
      0     2      207.8591    45      261.3630      207.9627      237   20.43%
Elapsed time = 0.06 sec. (31.48 ticks, tree = 0.01 MB, solutions = 4)
*    10    10      integral     0      240.5735      209.2745      398   13.01%
*    47    20      integral     0      238.0391      211.2908      782   11.24%
*    56    15      integral     0      223.0304      211.3707      866    5.23%
*    60+   10                          220.8475      211.4344             4.26%
*    79     0      integral     0      218.1986      217.2467     1037    0.44%

Implied bound cuts applied:  37
Flow cuts applied:  1
Mixed integer rounding cuts applied:  11
Zero-half cuts applied:  4
Gomory fractional cuts applied:  2

Root node processing (before b&c):
  Real time             =    0.06 sec. (31.49 ticks)
Sequential b&c:
  Real time             =    0.03 sec. (18.64 ticks)
                          ------------
Total (root+branch&cut) =    0.09 sec. (50.13 ticks)

Solution pool: 9 solutions saved.

MIP - Integer optimal solution:  Objective =  2.1819855033e+02
Solution time =    0.09 sec.  Iterations = 1037  Nodes = 80
Deterministic time = 50.13 ticks  (583.17 ticks/sec)

CPLEX> Incumbent solution written to file './run.2pPELitz/final.sol'.
CPLEX> 